RT is False
Default write of storage_offers_DA.csv just to have a file (but constraint should be inactive)
Reading model...
...model read.
creating competitive generators file...
...competitive generators recorded.
Loading data...
.. day-ahead data with real-time VRE data read.
Compiling instance...
...instance created.
Creating Offer Mitigation (model will solve as dispatch if TRUE)...
...storage offer mitigation file created
Converting model to MPEC...
...converted
NOTE: initial MIP solve with only storage competitive to get feasible solution
Solving...

Welcome to IBM(R) ILOG(R) CPLEX(R) Interactive Optimizer 12.9.0.0
  with Simplex, Mixed Integer & Barrier Optimizers
5725-A06 5725-A29 5724-Y48 5724-Y49 5724-Y54 5724-Y55 5655-Y21
Copyright IBM Corp. 1988, 2019.  All Rights Reserved.

Type 'help' for a list of available commands.
Type 'help' followed by a command name for more
information on commands.

CPLEX> Logfile 'cplex.log' closed.
Logfile 'C:\Users\llavin\Desktop\test826\logs\tmpmmlhmrvs.cplex.log' open.
CPLEX> New value for parallel optimization mode: -1
CPLEX> New value for emphasis for MIP optimization: 1
CPLEX> New value for mixed integer optimality gap tolerance: 0.01
CPLEX> New value for integrality tolerance: 1e-12
CPLEX> New value for deterministic time limit in ticks: 75000
CPLEX> Problem 'C:\Users\llavin\Desktop\test826\logs\tmpl78youru.pyomo.lp' read.
Read time = 0.23 sec. (14.73 ticks)
CPLEX> Problem name         : C:\Users\llavin\Desktop\test826\logs\tmpl78youru.pyomo.lp
Objective sense      : Maximize
Variables            :   53805  [Nneg: 1,  Box: 22000,  Free: 4464,
                                 Binary: 27340]
Objective nonzeros   :    9089
Linear constraints   :  123205  [Less: 41346,  Greater: 59096,  Equal: 22763]
  Nonzeros           :  291716
  RHS nonzeros       :   67502

Variables            : Min LB: -5000.000        Max UB: 1000000.       
Objective nonzeros   : Min   : 0.0001000000     Max   : 2500.000       
Linear constraints   :
  Nonzeros           : Min   : 0.0001000000     Max   : 1000000.       
  RHS nonzeros       : Min   : 0.0001000000     Max   : 1000000.       
CPLEX> CPXPARAM_Parallel                                -1
CPXPARAM_Emphasis_MIP                            1
CPXPARAM_DetTimeLimit                            75000
CPXPARAM_MIP_Tolerances_MIPGap                   0.01
CPXPARAM_MIP_Tolerances_Integrality              9.9999999999999998e-13
Tried aggregator 3 times.
MIP Presolve eliminated 88652 rows and 19008 columns.
MIP Presolve added 3357 rows and 0 columns.
MIP Presolve modified 24843 coefficients.
Aggregator did 12954 substitutions.
Reduced MIP has 24956 rows, 21295 columns, and 71099 nonzeros.
Reduced MIP has 8427 binaries, 0 generals, 0 SOSs, and 0 indicators.
Presolve time = 0.28 sec. (167.94 ticks)
Probing fixed 387 vars, tightened 4660 bounds.
Probing time = 0.06 sec. (19.19 ticks)
Tried aggregator 2 times.
MIP Presolve eliminated 868 rows and 774 columns.
MIP Presolve modified 3152 coefficients.
Aggregator did 28 substitutions.
Reduced MIP has 24060 rows, 20493 columns, and 68505 nonzeros.
Reduced MIP has 8040 binaries, 0 generals, 0 SOSs, and 0 indicators.
Presolve time = 0.11 sec. (87.43 ticks)
Probing fixed 0 vars, tightened 283 bounds.
Probing time = 0.14 sec. (22.91 ticks)
Clique table members: 43222.
MIP emphasis: integer feasibility.
MIP search method: dynamic search.
Parallel mode: opportunistic, using up to 32 threads.
Root relaxation solution time = 0.39 sec. (527.82 ticks)

        Nodes                                         Cuts/
   Node  Left     Objective  IInf  Best Integer    Best Bound    ItCnt     Gap

      0     0      -23.4052    43                    -23.4052     3857         
      0     0      -23.4052     1                 Flowcuts: 1     3858         
      0     2      -23.4052     1                    -23.4052     3858         
Elapsed time = 3.05 sec. (1619.40 ticks, tree = 0.02 MB, solutions = 1)
*     1     1      integral     0     -148.2809      -23.4052     3869   84.22%

Flow cuts applied:  1

Root node processing (before b&c):
  Real time             =    2.24 sec. (1579.36 ticks)
Parallel b&c, 32 threads:
  Real time             =    0.95 sec. (70.25 ticks)
  Sync time (average)   =    0.29 sec.
  Wait time (average)   =    0.00 sec.
                          ------------
Total (root+branch&cut) =    3.19 sec. (1649.62 ticks)

Solution pool: 1 solution saved.

MIP - Integer optimal solution:  Objective = -1.4828086204e+02
Solution time =    3.22 sec.  Iterations = 3887  Nodes = 8
Deterministic time = 1649.77 ticks  (512.51 ticks/sec)

CPLEX> Incumbent solution written to file 'C:\Users\llavin\Desktop\test826\logs\tmpx65v8ukb.cplex.sol'.
CPLEX> NOTE: no warmstart specified for MIP iteration, default behavior is true
NOTE: resolving with all competitive generators using storage-only solution to warmstart
Solving...

Welcome to IBM(R) ILOG(R) CPLEX(R) Interactive Optimizer 12.9.0.0
  with Simplex, Mixed Integer & Barrier Optimizers
5725-A06 5725-A29 5724-Y48 5724-Y49 5724-Y54 5724-Y55 5655-Y21
Copyright IBM Corp. 1988, 2019.  All Rights Reserved.

Type 'help' for a list of available commands.
Type 'help' followed by a command name for more
information on commands.

CPLEX> Logfile 'cplex.log' closed.
Logfile 'C:\Users\llavin\Desktop\test826\logs\tmpu7jtqrst.cplex.log' open.
CPLEX> New value for parallel optimization mode: -1
CPLEX> New value for emphasis for MIP optimization: 1
CPLEX> New value for mixed integer optimality gap tolerance: 0.01
CPLEX> New value for integrality tolerance: 1e-12
CPLEX> New value for deterministic time limit in ticks: 75000
CPLEX> Problem 'C:\Users\llavin\Desktop\test826\logs\tmpf4nuzmfd.pyomo.lp' read.
Read time = 0.23 sec. (14.75 ticks)
CPLEX> MIP start file 'C:\Users\llavin\Desktop\test826\logs\tmp9uopjsrc.cplex.mst' read.
CPLEX> Problem name         : C:\Users\llavin\Desktop\test826\logs\tmpf4nuzmfd.pyomo.lp
Objective sense      : Maximize
Variables            :   54525  [Nneg: 1,  Box: 22720,  Free: 4464,
                                 Binary: 27340]
Objective nonzeros   :    9809
Linear constraints   :  123205  [Less: 41346,  Greater: 59096,  Equal: 22763]
  Nonzeros           :  291716
  RHS nonzeros       :   67502

Variables            : Min LB: -5000.000        Max UB: 1000000.       
Objective nonzeros   : Min   : 0.0001000000     Max   : 2500.000       
Linear constraints   :
  Nonzeros           : Min   : 0.0001000000     Max   : 1000000.       
  RHS nonzeros       : Min   : 0.0001000000     Max   : 1000000.       
CPLEX> CPXPARAM_Parallel                                -1
CPXPARAM_Emphasis_MIP                            1
CPXPARAM_DetTimeLimit                            75000
CPXPARAM_MIP_Tolerances_MIPGap                   0.01
CPXPARAM_MIP_Tolerances_Integrality              9.9999999999999998e-13
Warning:  No solution found from 1 MIP starts.
Retaining values of one MIP start for possible repair.
Tried aggregator 3 times.
MIP Presolve eliminated 88652 rows and 19728 columns.
MIP Presolve added 3357 rows and 0 columns.
MIP Presolve modified 24843 coefficients.
Aggregator did 12954 substitutions.
Reduced MIP has 24956 rows, 21295 columns, and 71099 nonzeros.
Reduced MIP has 8427 binaries, 0 generals, 0 SOSs, and 0 indicators.
Presolve time = 0.28 sec. (168.30 ticks)
Probing fixed 387 vars, tightened 4660 bounds.
Probing time = 0.06 sec. (19.19 ticks)
Tried aggregator 2 times.
MIP Presolve eliminated 868 rows and 774 columns.
MIP Presolve modified 3152 coefficients.
Aggregator did 28 substitutions.
Reduced MIP has 24060 rows, 20493 columns, and 68505 nonzeros.
Reduced MIP has 8040 binaries, 0 generals, 0 SOSs, and 0 indicators.
Presolve time = 0.11 sec. (87.43 ticks)
Probing fixed 0 vars, tightened 283 bounds.
Probing time = 0.14 sec. (22.91 ticks)
Clique table members: 43222.
MIP emphasis: integer feasibility.
MIP search method: dynamic search.
Parallel mode: opportunistic, using up to 32 threads.
Root relaxation solution time = 0.36 sec. (527.82 ticks)

        Nodes                                         Cuts/
   Node  Left     Objective  IInf  Best Integer    Best Bound    ItCnt     Gap

      0     0      -23.4052    43                    -23.4052     3857         
      0     0      -23.4052     1                 Flowcuts: 1     3858         
Repair heuristic found nothing.
      0     2      -23.4052     1                    -23.4052     3858         
Elapsed time = 3.20 sec. (1647.09 ticks, tree = 0.02 MB, solutions = 1)
*     1     1      integral     0     -148.2809      -23.4052     3869   84.22%

Flow cuts applied:  1

Root node processing (before b&c):
  Real time             =    2.37 sec. (1607.07 ticks)
Parallel b&c, 32 threads:
  Real time             =    0.94 sec. (70.85 ticks)
  Sync time (average)   =    0.32 sec.
  Wait time (average)   =    0.00 sec.
                          ------------
Total (root+branch&cut) =    3.31 sec. (1677.93 ticks)

Solution pool: 1 solution saved.

MIP - Integer optimal solution:  Objective = -1.4828086204e+02
Solution time =    3.34 sec.  Iterations = 3887  Nodes = 8
Deterministic time = 1678.08 ticks  (501.82 ticks/sec)

CPLEX> Incumbent solution written to file 'C:\Users\llavin\Desktop\test826\logs\tmpzz4q2av9.cplex.sol'.
CPLEX> Exporting results... 
